CapLotSizing_PM/src/Instancias/TCHSHT/6i6p4m/NBA00.OUT
 CG ITER, OVMR, OVMRUB =           1   15943.9785156   10773.8007812
 CG ITER, OVMR, OVMRUB =           2   10735.5585938   10735.5576172
 CG ITER, OVMR, OVMRUB =           3   10735.5576172   10735.5576172
 CG ITER, OVMR, OVMRUB =           4    9829.4609375    9915.7011719
 CG ITER, OVMR, OVMRUB =           5    9664.2119141    9915.7011719
 CG ITER, OVMR, OVMRUB =           6    9668.7304688    9915.7011719
 CG ITER, OVMR, OVMRUB =           7    9698.0703125    9915.7011719
 CG ITER, OVMR, OVMRUB =           8    9710.1083984    9915.7011719
 CG ITER, OVMR, OVMRUB =           9    9727.8486328    9915.7011719
 CG ITER, OVMR, OVMRUB =          10    9743.4248047    9915.7011719
 CG ITER, OVMR, OVMRUB =          11    9759.0117188    9915.7011719
 CG ITER, OVMR, OVMRUB =          12    9768.8359375    9915.7011719
 CG ITER, OVMR, OVMRUB =          13    9780.2958984    9915.7011719
 CG ITER, OVMR, OVMRUB =          14    9781.8779297    9915.7011719
 CG ITER, OVMR, OVMRUB =          15    9784.1250000    9915.7011719
 CG ITER, OVMR, OVMRUB =          16    9787.6533203    9915.7011719
 CG ITER, OVMR, OVMRUB =          17    9787.0908203    9915.7011719
 CG ITER, OVMR, OVMRUB =          18    9788.0966797    9915.7011719
 CG ITER, OVMR, OVMRUB =          19    9787.7714844    9915.7011719
 CG ITER, OVMR, OVMRUB =          20    9788.5263672    9915.7011719
 CG ITER, OVMR, OVMRUB =          21    9789.0937500    9915.7011719
 CG ITER, OVMR, OVMRUB =          22    9789.3945312    9915.7011719
 CG ITER, OVMR, OVMRUB =          23    9789.8183594    9915.7011719
 CG ITER, OVMR, OVMRUB =          24    9790.4589844    9915.7011719
 CG ITER, OVMR, OVMRUB =          25    9790.9697266    9915.7011719
 CG ITER, OVMR, OVMRUB =          26    9791.4648438    9915.7011719
 CG ITER, OVMR, OVMRUB =          27    9791.8183594    9915.7011719
 CG ITER, OVMR, OVMRUB =          28    9792.2226562    9915.7011719
 CG ITER, OVMR, OVMRUB =          29    9792.9287109    9915.7011719
 CG ITER, OVMR, OVMRUB =          30    9793.3535156    9915.7011719
 CG ITER, OVMR, OVMRUB =          31    9793.3789062    9915.7011719
 CG ITER, OVMR, OVMRUB =          32    9794.1611328    9915.7011719
 CG ITER, OVMR, OVMRUB =          33    9794.1611328    9915.7011719
OVLB =    9794.1611328 OVLUB =    9915.7011719 TIME =       0.9600000
